211 3541
 2 3 4 5 6 7 8 9 10 11 12 13 14 15 16 33 36 41 43 45 47 48 51 54 56 57 59 60 61 62 63 64 65 66 67 68 69 70 71 72 73 74 75 76 77 78 79 80 81 82 83 84 85 88 90 91 92 99 101 106 107 108 109 110 117 120 121 122 124 125 126 127 128 129 130 131 132 133 134 135 136 137 138 139 140 141 142 143 144 145 146 147 148 151 152 154 156 162 163 164 165 166 167 168 170 172 173 174 175 176 177 178 179 180 181 182 183 184 185 186 190 191 192 193 194 195 196 197 198 199 200 201 202 204 205 206 207 208 210 211
 3 4 5 6 7 8 9 10 11 12 13 14 15 16 33 36 41 43 45 47 48 51 54 56 57 59 60 61 62 63 64 65 66 67 68 69 70 71 72 73 74 75 76 77 78 79 80 81 82 83 84 85 88 90 91 92 99 101 106 107 108 109 110 117 120 121 122 124 125 126 127 128 129 130 131 132 133 134 135 136 137 138 139 140 141 142 143 144 145 146 147 148 151 152 154 156 162 163 164 165 166 167 168 170 172 173 174 175 176 177 178 179 180 181 182 183 184 185 186 190 191 192 193 194 195 196 197 198 199 200 201 202 204 205 206 207 208 210 211
 4 5 6 7 8 9 10 11 12 13 14 15 16 33 36 41 43 45 47 48 51 54 56 57 59 60 61 62 63 64 65 66 67 68 69 70 71 72 73 74 75 76 77 78 79 80 81 82 83 84 85 88 90 91 92 99 101 106 107 108 109 110 117 120 121 122 124 125 126 127 128 129 130 131 132 133 134 135 136 137 138 139 145 146 147 148 151 152 154 156 162 163 164 165 166 167 168 170 172 173 174 175 176 177 178 179 180 181 182 183 184 185 186 190 191 192 193 194 195 196 197 198 199 200 201 202 204 205 206 207 208 210 211
 5 6 7 8 9 10 11 12 13 14 15 16 33 36 41 43 45 47 48 51 54 56 57 59 60 61 70 71 72 73 74 75 76 77 78 80 82 85 88 90 91 92 99 101 106 107 108 109 110 117 120 121 122 124 125 126 127 128 129 130 131 132 133 134 135 136 137 138 139 145 146 147 148 151 152 154 156 162 163 164 165 166 167 168 170 172 173 174 175 176 177 178 179 180 181 182 183 184 185 186 190 191 192 193 194 195 196 197 198 199 200 201 202 204 205 206 207 208 210 211
 6 7 8 9 10 11 12 13 14 15 16 33 36 41 43 45 47 48 51 54 56 57 59 60 61 62 70 71 72 73 74 75 76 77 78 80 82 85 88 90 91 92 99 101 106 107 108 109 110 117 120 121 122 124 125 126 127 128 129 130 131 132 133 134 135 136 137 138 139 144 145 146 147 148 151 152 154 156 162 163 164 165 166 167 168 170 172 173 174 175 176 177 178 179 180 181 182 183 184 185 186 190 191 192 193 194 195 196 197 198 199 200 201 202 204 205 206 207 208 210 211
 7 8 9 10 11 12 13 14 15 16 33 36 41 43 45 47 48 51 54 56 57 59 60 61 62 63 70 71 72 73 74 75 76 77 78 80 82 85 88 90 91 92 99 101 106 107 108 109 110 117 120 121 122 124 125 126 127 128 129 130 131 132 133 134 135 136 137 138 139 143 144 145 146 147 148 151 152 154 156 162 163 164 165 166 167 168 170 172 173 174 175 176 177 178 179 180 181 182 183 184 185 186 190 191 192 193 194 195 196 197 198 199 200 201 202 204 205 206 207 208 210 211
 8 9 10 11 12 13 14 15 16 33 36 41 43 45 47 48 51 54 56 57 59 60 61 62 63 64 70 71 72 73 74 75 76 77 78 80 82 85 88 90 91 92 99 101 106 107 108 109 110 117 120 121 122 124 125 126 127 128 129 130 131 132 133 134 135 136 137 138 139 142 143 144 145 146 147 148 151 152 154 156 162 163 164 165 166 167 168 170 172 173 174 175 176 177 178 179 180 181 182 183 184 185 186 190 191 192 193 194 195 196 197 198 199 200 201 202 204 205 206 207 208 210 211
 9 10 11 12 13 14 15 16 33 36 41 43 45 47 48 51 54 56 57 59 60 61 62 63 64 65 70 71 72 73 74 75 76 77 78 80 82 85 88 90 91 92 99 101 106 107 108 109 110 117 120 121 122 124 125 126 127 128 129 130 131 132 133 134 135 136 137 138 139 141 142 143 144 145 146 147 148 151 152 154 156 162 163 164 165 166 167 168 170 172 173 174 175 176 177 178 179 180 181 182 183 184 185 186 190 191 192 193 194 195 196 197 198 199 200 201 202 204 205 206 207 208 210 211
 10 11 12 13 14 15 16 33 36 41 43 45 47 48 51 54 56 57 59 60 61 62 63 64 65 66 70 71 72 73 74 75 76 77 78 80 82 85 88 90 91 92 99 101 106 107 108 109 110 117 120 121 122 124 125 126 127 128 129 130 131 132 133 134 135 136 137 138 139 140 141 142 143 144 145 146 147 148 151 152 154 156 162 163 164 165 166 167 168 170 172 173 174 175 176 177 178 179 180 181 182 183 184 185 186 190 191 192 193 194 195 196 197 198 199 200 201 202 204 205 206 207 208 210 211
 11 12 13 14 15 16 33 36 41 43 45 47 48 51 54 56 57 59 60 61 62 63 64 65 66 67 70 71 72 73 74 75 76 77 78 80 82 85 88 90 91 92 99 101 106 107 108 109 110 117 120 121 122 124 125 126 127 128 129 130 131 132 133 134 135 136 137 138 139 140 141 142 143 144 145 146 147 148 151 152 154 156 162 163 164 165 166 167 168 170 172 173 174 175 176 177 178 179 180 181 182 183 184 185 186 190 191 192 193 194 195 196 197 198 199 200 201 202 204 205 206 207 208 210 211
 12 13 14 15 16 33 36 41 43 45 47 48 51 54 56 57 59 60 61 62 63 64 65 66 67 68 69 70 71 72 73 74 75 76 77 78 79 80 81 82 83 84 85 88 90 91 92 99 101 106 107 108 109 110 117 120 121 122 124 125 126 127 128 129 130 131 132 133 134 135 136 137 138 139 145 146 147 148 151 152 154 156 162 163 164 165 166 167 168 170 172 173 174 175 176 177 178 179 180 181 182 183 184 185 186 190 191 192 193 194 195 196 197 198 199 200 201 202 204 205 206 207 208 210 211
 13 14 15 16 33 36 41 43 45 47 48 51 54 56 57 59 60 61 62 63 64 65 66 67 68 69 70 71 72 73 74 75 76 77 78 79 80 81 82 83 84 85 88 90 91 92 99 101 106 107 108 109 110 117 120 121 122 124 125 126 127 128 129 130 131 132 133 134 135 136 137 138 139 145 146 147 148 151 152 154 156 162 163 164 165 166 167 168 170 172 173 174 175 176 177 178 179 180 181 182 183 184 185 186 190 191 192 193 194 195 196 197 198 199 200 201 202 204 205 206 207 208 210 211
 14 15 16 33 36 41 43 45 47 48 51 54 56 57 59 60 61 62 63 64 65 66 67 68 69 70 71 72 73 74 75 76 77 78 79 80 81 82 83 84 85 88 90 91 92 99 101 106 107 108 109 110 117 120 121 122 124 125 126 127 128 129 130 131 132 133 134 135 136 137 138 139 145 146 147 148 151 152 154 156 162 163 164 165 166 167 168 170 172 173 174 175 176 177 178 179 180 181 182 183 184 185 186 190 191 192 193 194 195 196 197 198 199 200 201 202 204 205 206 207 208 210 211
 15 16 33 36 41 43 45 47 48 51 54 56 57 59 60 61 62 63 64 65 66 67 68 69 70 71 72 73 74 75 76 77 78 79 80 81 82 83 84 85 88 90 91 92 99 101 106 107 108 109 110 117 120 121 122 124 125 126 127 128 129 130 131 132 133 134 135 136 137 138 139 145 146 147 148 151 152 154 156 162 163 164 165 166 167 168 170 172 173 174 175 176 177 178 179 180 181 182 183 184 185 186 190 191 192 193 194 195 196 197 198 199 200 201 202 204 205 206 207 208 210 211
 16 33 36 41 43 45 47 48 51 54 56 57 59 60 61 67 68 69 70 71 72 73 74 75 76 77 78 79 80 81 82 83 84 85 88 90 91 92 99 101 106 107 108 109 110 117 120 121 122 124 125 126 127 128 129 130 131 132 133 134 135 136 137 138 139 145 146 147 148 151 152 154 156 162 163 164 165 166 167 168 170 172 173 174 175 176 177 178 179 180 181 182 183 184 185 186 190 191 192 193 194 195 196 197 198 199 200 201 202 204 205 206 207 208 210 211
 33 36 41 43 45 47 48 51 54 56 57 59 60 61 62 63 64 65 66 67 68 69 70 71 72 73 74 75 76 77 78 79 80 81 82 83 84 85 88 90 91 92 99 101 106 107 108 109 110 117 120 121 122 124 125 126 127 128 129 130 131 132 133 134 135 136 137 138 139 140 141 142 143 144 145 146 147 148 151 152 154 156 162 163 164 165 166 167 168 170 172 173 174 175 176 177 178 179 180 181 182 183 184 185 186 190 191 192 193 194 195 196 197 198 199 200 201 202 204 205 206 207 208 210 211
 18 19 20 21 22 23 24 25 26 27 28 29 30 31 32 33 36 41 43 45 47 48 51 54 56 57 59 60 61 62 63 64 65 66 67 68 69 70 71 72 73 74 75 76 77 78 79 80 81 82 83 84 85 88 90 91 92 99 101 106 107 108 109 110 117 120 121 122 124 125 126 127 128 129 130 131 132 133 134 135 136 137 138 139 140 141 142 143 144 145 146 147 148 151 152 154 156 162 163 164 165 166 167 168 170 172 173 174 175 176 177 178 179 180 181 182 183 184 185 186 190 191 192 193 194 195 196 197 198 199 200 201 202 204 205 206 207 208 210 211
 19 20 21 22 23 24 25 26 27 28 29 30 31 32 62 63 64 65 66 67 68 69 79 81 83 84 140 141 142 143 144
 20 21 22 23 24 25 26 27 28 29 30 31 32 62 63 64 65 66 67 68 69 70 79 81 83 84 139 140 141 142 143 144
 21 22 23 24 25 26 27 28 29 30 31 32 62 63 64 65 66 67 68 69 70 71 79 81 83 84 138 139 140 141 142 143 144
 22 23 24 25 26 27 28 29 30 31 32 62 63 64 65 66 67 68 69 70 71 72 79 81 83 84 137 138 139 140 141 142 143 144
 23 24 25 26 27 28 29 30 31 32 62 63 64 65 66 67 68 69 70 71 72 73 79 81 83 84 136 137 138 139 140 141 142 143 144
 24 25 26 27 28 29 30 31 32 62 63 64 65 66 67 68 69 70 71 72 73 74 79 81 83 84 135 136 137 138 139 140 141 142 143 144
 25 26 27 28 29 30 31 32 62 63 64 65 66 67 68 69 70 71 72 73 74 75 79 81 83 84 134 135 136 137 138 139 140 141 142 143 144
 26 27 28 29 30 31 32 62 63 64 65 66 67 68 69 70 71 72 73 74 75 76 79 81 83 84 133 134 135 136 137 138 139 140 141 142 143 144
 27 28 29 30 31 32 62 63 64 65 66 67 68 69 70 71 72 73 74 75 76 77 79 81 83 84 132 133 134 135 136 137 138 139 140 141 142 143 144
 28 29 30 31 32 33 36 41 43 45 47 48 51 54 56 57 59 60 61 62 63 64 65 66 67 68 69 79 81 83 84 99 101 106 107 108 109 110 117 120 121 122 124 125 126 127 131 132 133 134 135 136 137 138 139 140 141 142 143 144 145 146 147 148 151 152 154 156 162 163 164 165 166 167 168 170 172 173 174 175 176 177 178 179 180 181 182 183 184 185 186 190 191 192 193 194 195 196 197 198 199 200 201 202 204 205 206 207 208 210 211
 29 30 31 32 33 36 41 43 45 47 48 54 62 63 64 65 66 67 68 69 79 81 83 84 140 141 142 143 144
 30 31 32 33 36 41 43 45 47 48 54 62 63 64 65 66 67 68 69 79 81 83 84 140 141 142 143 144
 31 32 33 36 41 43 45 47 48 54 62 63 64 65 66 67 68 69 79 81 83 84 140 141 142 143 144
 32 33 36 41 43 45 47 48 54 62 63 64 65 66 67 68 69 79 81 83 84 140 141 142 143 144
 33 36 41 43 45 47 48 54 62 63 64 65 66 67 68 69 79 81 83 84 140 141 142 143 144
 36 41 43 45 47 48 51 54 59 60 61 99 101 106 107 108 109 110 117 120 121 122 124 125 126 127 145 146 147 148 151 152 154 156 162 163 164 165 210 211


 41 43 45 47 48 51 54 56 57 59 60 61 99 101 106 107 108 109 110 117 120 121 122 124 125 126 127 128 129 130 131 132 133 134 135 136 137 138 139 145 146 147 148 151 152 154 156 162 163 164 165 166 167 168 170 172 173 174 175 176 177 178 179 180 181 182 183 184 185 186 190 191 192 193 194 195 196 197 198 199 200 201 202 204 205 206 207 208 210 211




 43 45 48 51 54 56 57 59 60 61 106 107 108 109 110 117 120 121 122 124 125 126 127 145 146 147 148 151 152 154 156 162 163 164 165 166 167 168 170 172 173 174 175 176 177 178 179 180 181 182 183 184 185 186 190 191 192 193 194 195 196 197 198 199 200 201 202 204 205 206 207 208 210 211

 45 48 51 54 56 57 59 60 61 106 107 108 109 110 117 120 121 122 124 125 126 127 145 146 147 148 151 152 154 156 162 163 164 165 166 167 168 170 172 173 174 175 176 177 178 179 180 181 182 183 184 185 186 190 191 192 193 194 195 196 197 198 199 200 201 202 204 205 206 207 208 210 211

 48 51 54 56 57 59 60 61 106 107 108 109 110 117 120 121 122 124 125 126 127 145 146 147 148 151 152 154 156 162 163 164 165 166 167 168 170 172 173 174 175 176 177 178 179 180 181 182 190 191 192 193 194 195 196 197 198 199 200 201 202 204 205 206 207 208 210 211

 48 51 88 90 91 92 99
 51 54 59 60 61 99 101 106 107 108 109 110 117 120 121 122 124 125 126 127 145 146 147 148 151 152 154 156 162 163 164 165 190 191 192 210 211


 54 56 57 59 60 61 99 101 106 107 108 109 110 117 120 121 122 124 125 126 127 145 146 147 148 154 156 162 163 164 165 166 167 168 170 172 173 174 175 176 177 178 179 180 181 182 183 184 185 186 190 191 192 193 194 195 196 197 198 199 200 201 202 204 205 206 207 208 210 211


 56 57 59 60 61 106 107 108 109 110 117 120 121 122 124 125 126 127 145 146 147 148 151 152 154 156 162 163 164 165 166 167 168 170 172 173 174 175 176 177 178 179 180 181 182 183 184 185 186 190 191 192 193 194 195 196 197 198 199 200 201 202 204 205 206 207 208 210 211

 57 61 125 166 170 191 193 200 204 205 206 207 208
 61 125 172 173 174 175 176 177 178 179 180 181 182 183 184 185 186

 60 120 121 122
 61 120 121 122 124
 124 125 126 127 145 146 147 148 151 152 162 163 164 165 166 167 168 170 172 173 174 175 176 177 178 179 180 181 182 183 184 185 186 190 191 192 193 194 195 196 197 198 199 200 201 202 204 205 206 207 208





 68 69 79 81 83 84 140 141 142 143 144
 69 79 81 83 84 140 141 142 143 144
 79 81 83 84 140 141 142 143 144









 81 83 84

 83 84

 84






 91
















 108


 117









 121




 126 127 145 146 147 148 151 152 162 163 164 165 166 167 168 170 172 173 174 175 176 177 178 179 180 181 182 183 184 185 186 190 191 192 193 194 195 196 197 198 199 200 201 202 204 205 206 207 208





 132 133 134 135 136 137 138 139
 133 134 135 136 137 138 139
 134 135 136 137 138 139
 135 136 137 138 139
 136 137 138 139
 137 138 139
 138 139
 139

 141 142 143 144
 142 143 144
 143 144
 144


















 163



 167 168 170





 173 174 175 176 177 178 179 180 181 182 183 184 185 186
 174
 175
 176 177 178 179 180

 178 179












 191 192 193 194 195 196 197 198 199 200
 192 193 194 195 196 197 198 199 200 201 202 204
 193 194 195 196 197 198 199
 194 195 196 197 198 199 200 201 202 204 205 206 207


 197

 199 200 201

 201 202 204 205





 207 208



 211

